(set-option :produce-models true); benchmark generated from python API
(set-info :status unknown)
(declare-fun l_0_0_1 () Real)
(declare-fun l_0_0_2 () Real)
(declare-fun l_0_0_3 () Real)
(declare-fun l_0_0_4 () Real)
(declare-fun l_0_1_1 () Real)
(declare-fun l_0_1_2 () Real)
(declare-fun l_0_1_3 () Real)
(declare-fun l_0_1_6 () Real)
(declare-fun l_0_1_5 () Real)
(declare-fun l_0_1_4 () Real)
(declare-fun l_0_2_1 () Real)
(declare-fun l_0_2_2 () Real)
(declare-fun l_0_2_3 () Real)
(declare-fun l_0_2_8 () Real)
(declare-fun l_0_2_7 () Real)
(declare-fun l_0_2_6 () Real)
(declare-fun l_0_2_5 () Real)
(declare-fun l_0_2_4 () Real)
(declare-fun l_0_3_1 () Real)
(declare-fun l_0_3_2 () Real)
(declare-fun l_0_3_3 () Real)
(declare-fun l_0_3_9 () Real)
(declare-fun l_0_3_8 () Real)
(declare-fun l_0_3_7 () Real)
(declare-fun l_0_3_6 () Real)
(declare-fun l_0_3_5 () Real)
(declare-fun l_0_3_4 () Real)
(declare-fun l_0_3_10 () Real)
(declare-fun l_0_4_2 () Real)
(declare-fun l_0_4_1 () Real)
(declare-fun l_0_4_3 () Real)
(declare-fun l_0_4_9 () Real)
(declare-fun l_0_4_8 () Real)
(declare-fun l_0_4_7 () Real)
(declare-fun l_0_4_6 () Real)
(declare-fun l_0_4_5 () Real)
(declare-fun l_0_4_4 () Real)
(declare-fun l_0_4_12 () Real)
(declare-fun l_0_4_11 () Real)
(declare-fun l_0_4_10 () Real)
(declare-fun l_0_5_2 () Real)
(declare-fun l_0_5_1 () Real)
(declare-fun l_0_5_3 () Real)
(declare-fun l_0_5_9 () Real)
(declare-fun l_0_5_8 () Real)
(declare-fun l_0_5_7 () Real)
(declare-fun l_0_5_6 () Real)
(declare-fun l_0_5_5 () Real)
(declare-fun l_0_5_4 () Real)
(declare-fun l_0_5_14 () Real)
(declare-fun l_0_5_13 () Real)
(declare-fun l_0_5_12 () Real)
(declare-fun l_0_5_11 () Real)
(declare-fun l_0_5_10 () Real)
(declare-fun l_0_6_6 () Real)
(declare-fun l_0_6_5 () Real)
(declare-fun l_0_6_2 () Real)
(declare-fun l_0_6_1 () Real)
(declare-fun l_0_6_4 () Real)
(declare-fun l_0_6_3 () Real)
(declare-fun l_0_6_7 () Real)
(declare-fun l_0_6_8 () Real)
(declare-fun l_0_7_1 () Real)
(declare-fun l_0_7_2 () Real)
(declare-fun l_0_7_3 () Real)
(declare-fun l_0_7_4 () Real)
(declare-fun l_0_7_5 () Real)
(declare-fun l_0_7_6 () Real)
(declare-fun l_0_7_7 () Real)
(declare-fun l_0_7_8 () Real)
(declare-fun l_0_7_9 () Real)
(declare-fun l_0_7_10 () Real)
(declare-fun l_0_8_6 () Real)
(declare-fun l_0_8_5 () Real)
(declare-fun l_0_8_2 () Real)
(declare-fun l_0_8_1 () Real)
(declare-fun l_0_8_8 () Real)
(declare-fun l_0_8_4 () Real)
(declare-fun l_0_8_3 () Real)
(declare-fun l_0_8_7 () Real)
(declare-fun l_0_8_9 () Real)
(declare-fun l_0_9_8 () Real)
(declare-fun l_0_9_2 () Real)
(declare-fun l_0_9_1 () Real)
(declare-fun l_0_9_6 () Real)
(declare-fun l_0_9_5 () Real)
(declare-fun l_0_9_4 () Real)
(declare-fun l_0_9_3 () Real)
(declare-fun l_0_9_7 () Real)
(declare-fun l_0_9_9 () Real)
(declare-fun l_0_9_11 () Real)
(declare-fun l_0_9_10 () Real)
(declare-fun l_0_10_5 () Real)
(declare-fun l_0_10_4 () Real)
(declare-fun l_0_10_3 () Real)
(declare-fun l_0_10_8 () Real)
(declare-fun l_0_10_6 () Real)
(declare-fun l_0_10_2 () Real)
(declare-fun l_0_10_1 () Real)
(declare-fun l_0_10_7 () Real)
(declare-fun l_0_10_9 () Real)
(declare-fun l_0_10_13 () Real)
(declare-fun l_0_10_12 () Real)
(declare-fun l_0_10_11 () Real)
(declare-fun l_0_10_10 () Real)
(declare-fun l_0_11_8 () Real)
(declare-fun l_0_11_4 () Real)
(declare-fun l_0_11_3 () Real)
(declare-fun l_0_11_5 () Real)
(declare-fun l_0_11_6 () Real)
(declare-fun l_0_11_2 () Real)
(declare-fun l_0_11_1 () Real)
(declare-fun l_0_11_7 () Real)
(declare-fun l_0_11_9 () Real)
(declare-fun l_0_11_15 () Real)
(declare-fun l_0_11_14 () Real)
(declare-fun l_0_11_13 () Real)
(declare-fun l_0_11_12 () Real)
(declare-fun l_0_11_11 () Real)
(declare-fun l_0_11_10 () Real)
(declare-fun l_0_12_6 () Real)
(declare-fun l_0_12_5 () Real)
(declare-fun l_0_12_2 () Real)
(declare-fun l_0_12_1 () Real)
(declare-fun l_0_12_8 () Real)
(declare-fun l_0_12_4 () Real)
(declare-fun l_0_12_3 () Real)
(declare-fun l_0_12_7 () Real)
(declare-fun l_0_12_9 () Real)
(declare-fun l_0_12_17 () Real)
(declare-fun l_0_12_16 () Real)
(declare-fun l_0_12_15 () Real)
(declare-fun l_0_12_14 () Real)
(declare-fun l_0_12_13 () Real)
(declare-fun l_0_12_12 () Real)
(declare-fun l_0_12_11 () Real)
(declare-fun l_0_12_10 () Real)
(declare-fun l_0_13_8 () Real)
(declare-fun l_0_13_6 () Real)
(declare-fun l_0_13_5 () Real)
(declare-fun l_0_13_2 () Real)
(declare-fun l_0_13_1 () Real)
(declare-fun l_0_13_4 () Real)
(declare-fun l_0_13_3 () Real)
(declare-fun l_0_13_7 () Real)
(declare-fun l_0_13_9 () Real)
(declare-fun l_0_13_19 () Real)
(declare-fun l_0_13_18 () Real)
(declare-fun l_0_13_17 () Real)
(declare-fun l_0_13_16 () Real)
(declare-fun l_0_13_15 () Real)
(declare-fun l_0_13_14 () Real)
(declare-fun l_0_13_13 () Real)
(declare-fun l_0_13_12 () Real)
(declare-fun l_0_13_11 () Real)
(declare-fun l_0_13_10 () Real)
(declare-fun l_0_14_6 () Real)
(declare-fun l_0_14_5 () Real)
(declare-fun l_0_14_2 () Real)
(declare-fun l_0_14_1 () Real)
(declare-fun l_0_14_4 () Real)
(declare-fun l_0_14_3 () Real)
(declare-fun l_0_14_8 () Real)
(declare-fun l_0_14_7 () Real)
(declare-fun l_0_14_9 () Real)
(declare-fun l_0_15_8 () Real)
(declare-fun l_0_15_2 () Real)
(declare-fun l_0_15_1 () Real)
(declare-fun l_0_15_4 () Real)
(declare-fun l_0_15_3 () Real)
(declare-fun l_0_15_6 () Real)
(declare-fun l_0_15_5 () Real)
(declare-fun l_0_15_7 () Real)
(declare-fun l_0_15_9 () Real)
(declare-fun l_0_15_11 () Real)
(declare-fun l_0_15_10 () Real)
(declare-fun l_0_16_5 () Real)
(declare-fun l_0_16_4 () Real)
(declare-fun l_0_16_3 () Real)
(declare-fun l_0_16_8 () Real)
(declare-fun l_0_16_6 () Real)
(declare-fun l_0_16_2 () Real)
(declare-fun l_0_16_1 () Real)
(declare-fun l_0_16_7 () Real)
(declare-fun l_0_16_9 () Real)
(declare-fun l_0_16_13 () Real)
(declare-fun l_0_16_12 () Real)
(declare-fun l_0_16_11 () Real)
(declare-fun l_0_16_10 () Real)
(declare-fun l_0_17_8 () Real)
(declare-fun l_0_17_4 () Real)
(declare-fun l_0_17_3 () Real)
(declare-fun l_0_17_5 () Real)
(declare-fun l_0_17_6 () Real)
(declare-fun l_0_17_2 () Real)
(declare-fun l_0_17_1 () Real)
(declare-fun l_0_17_7 () Real)
(declare-fun l_0_17_9 () Real)
(declare-fun l_0_17_15 () Real)
(declare-fun l_0_17_14 () Real)
(declare-fun l_0_17_13 () Real)
(declare-fun l_0_17_12 () Real)
(declare-fun l_0_17_11 () Real)
(declare-fun l_0_17_10 () Real)
(declare-fun l_0_18_6 () Real)
(declare-fun l_0_18_5 () Real)
(declare-fun l_0_18_2 () Real)
(declare-fun l_0_18_1 () Real)
(declare-fun l_0_18_4 () Real)
(declare-fun l_0_18_3 () Real)
(declare-fun l_0_18_8 () Real)
(declare-fun l_0_18_7 () Real)
(declare-fun l_0_18_9 () Real)
(declare-fun l_0_18_17 () Real)
(declare-fun l_0_18_16 () Real)
(declare-fun l_0_18_15 () Real)
(declare-fun l_0_18_14 () Real)
(declare-fun l_0_18_13 () Real)
(declare-fun l_0_18_12 () Real)
(declare-fun l_0_18_11 () Real)
(declare-fun l_0_18_10 () Real)
(declare-fun l_0_19_8 () Real)
(declare-fun l_0_19_6 () Real)
(declare-fun l_0_19_5 () Real)
(declare-fun l_0_19_2 () Real)
(declare-fun l_0_19_1 () Real)
(declare-fun l_0_19_4 () Real)
(declare-fun l_0_19_3 () Real)
(declare-fun l_0_19_7 () Real)
(declare-fun l_0_19_9 () Real)
(declare-fun l_0_19_19 () Real)
(declare-fun l_0_19_18 () Real)
(declare-fun l_0_19_17 () Real)
(declare-fun l_0_19_16 () Real)
(declare-fun l_0_19_15 () Real)
(declare-fun l_0_19_14 () Real)
(declare-fun l_0_19_13 () Real)
(declare-fun l_0_19_12 () Real)
(declare-fun l_0_19_11 () Real)
(declare-fun l_0_19_10 () Real)
(assert
 (= (- l_0_0_1) 0.0))
(assert
 (= (- l_0_0_1 l_0_0_2) 0.0))
(assert
 (= (- l_0_0_3) 0.0))
(assert
 (= (- l_0_0_4) 0.0))
(assert
 (>= l_0_0_1 0.0))
(assert
 (>= l_0_0_2 0.0))
(assert
 (>= l_0_0_3 0.0))
(assert
 (>= l_0_0_4 0.0))
(assert
 (= (- l_0_1_1) 0.0))
(assert
 (= (- l_0_1_1 l_0_1_2) 0.0))
(assert
 (= (- l_0_1_3) 0.0))
(assert
 (= (- (- (- l_0_1_4) l_0_1_5) l_0_1_6) 0.0))
(assert
 (>= l_0_1_1 0.0))
(assert
 (>= l_0_1_2 0.0))
(assert
 (>= l_0_1_3 0.0))
(assert
 (>= l_0_1_4 0.0))
(assert
 (>= l_0_1_5 0.0))
(assert
 (>= l_0_1_6 0.0))
(assert
 (= (- l_0_2_1) 0.0))
(assert
 (= (- l_0_2_1 l_0_2_2) 0.0))
(assert
 (= (- l_0_2_3) 0.0))
(assert
 (= (- (- (- (- (- l_0_2_4) l_0_2_5) l_0_2_6) l_0_2_7) l_0_2_8) 0.0))
(assert
 (>= l_0_2_1 0.0))
(assert
 (>= l_0_2_2 0.0))
(assert
 (>= l_0_2_3 0.0))
(assert
 (>= l_0_2_4 0.0))
(assert
 (>= l_0_2_5 0.0))
(assert
 (>= l_0_2_6 0.0))
(assert
 (>= l_0_2_7 0.0))
(assert
 (>= l_0_2_8 0.0))
(assert
 (= (- l_0_3_1) 0.0))
(assert
 (= (- l_0_3_1 l_0_3_2) 0.0))
(assert
 (= (- l_0_3_3) 0.0))
(assert
 (let ((?x376 (- (- (- (- (- (- l_0_3_10) l_0_3_4) l_0_3_5) l_0_3_6) l_0_3_7) l_0_3_8)))
 (= (- ?x376 l_0_3_9) 0.0)))
(assert
 (>= l_0_3_1 0.0))
(assert
 (>= l_0_3_2 0.0))
(assert
 (>= l_0_3_3 0.0))
(assert
 (>= l_0_3_4 0.0))
(assert
 (>= l_0_3_5 0.0))
(assert
 (>= l_0_3_6 0.0))
(assert
 (>= l_0_3_7 0.0))
(assert
 (>= l_0_3_8 0.0))
(assert
 (>= l_0_3_9 0.0))
(assert
 (>= l_0_3_10 0.0))
(assert
 (= (- (- l_0_4_1 l_0_4_2) 1.0) 0.0))
(assert
 (= (- 1.0 l_0_4_1) 0.0))
(assert
 (= (- l_0_4_3) 0.0))
(assert
 (let ((?x433 (- (- (- (- (- l_0_4_10) l_0_4_11) l_0_4_12) l_0_4_4) l_0_4_5)))
 (= (- (- (- (- ?x433 l_0_4_6) l_0_4_7) l_0_4_8) l_0_4_9) 0.0)))
(assert
 (>= l_0_4_1 0.0))
(assert
 (>= l_0_4_2 0.0))
(assert
 (>= l_0_4_3 0.0))
(assert
 (>= l_0_4_4 0.0))
(assert
 (>= l_0_4_5 0.0))
(assert
 (>= l_0_4_6 0.0))
(assert
 (>= l_0_4_7 0.0))
(assert
 (>= l_0_4_8 0.0))
(assert
 (>= l_0_4_9 0.0))
(assert
 (>= l_0_4_10 0.0))
(assert
 (>= l_0_4_11 0.0))
(assert
 (>= l_0_4_12 0.0))
(assert
 (= (+ (- l_0_5_1 l_0_5_2) 1.0) 0.0))
(assert
 (= (- l_0_5_1) 0.0))
(assert
 (= (- l_0_5_3) 0.0))
(assert
 (let ((?x495 (- (- (- (- (- l_0_5_10) l_0_5_11) l_0_5_12) l_0_5_13) l_0_5_14)))
 (let ((?x500 (- (- (- (- (- ?x495 l_0_5_4) l_0_5_5) l_0_5_6) l_0_5_7) l_0_5_8)))
 (= (- ?x500 l_0_5_9) 0.0))))
(assert
 (>= l_0_5_1 0.0))
(assert
 (>= l_0_5_2 0.0))
(assert
 (>= l_0_5_3 0.0))
(assert
 (>= l_0_5_4 0.0))
(assert
 (>= l_0_5_5 0.0))
(assert
 (>= l_0_5_6 0.0))
(assert
 (>= l_0_5_7 0.0))
(assert
 (>= l_0_5_8 0.0))
(assert
 (>= l_0_5_9 0.0))
(assert
 (>= l_0_5_10 0.0))
(assert
 (>= l_0_5_11 0.0))
(assert
 (>= l_0_5_12 0.0))
(assert
 (>= l_0_5_13 0.0))
(assert
 (>= l_0_5_14 0.0))
(assert
 (= (+ (- l_0_6_5 l_0_6_6) 1.0) 0.0))
(assert
 (= (- (+ (- (+ (- l_0_6_1) l_0_6_2) l_0_6_5) l_0_6_6) 1.0) 0.0))
(assert
 (= (- l_0_6_1 l_0_6_2) 0.0))
(assert
 (= (- (+ (* (- (/ 1.0 2.0)) l_0_6_3) (* (/ 1.0 2.0) l_0_6_4)) l_0_6_5) 0.0))
(assert
 (= (- l_0_6_3 l_0_6_4) 0.0))
(assert
 (= l_0_6_7 0.0))
(assert
 (= (- l_0_6_7) 0.0))
(assert
 (= (- l_0_6_8) 0.0))
(assert
 (>= l_0_6_1 0.0))
(assert
 (>= l_0_6_2 0.0))
(assert
 (>= l_0_6_3 0.0))
(assert
 (>= l_0_6_4 0.0))
(assert
 (>= l_0_6_5 0.0))
(assert
 (>= l_0_6_6 0.0))
(assert
 (>= l_0_6_7 0.0))
(assert
 (>= l_0_6_8 0.0))
(assert
 false)
(assert
 (>= l_0_7_1 0.0))
(assert
 (>= l_0_7_2 0.0))
(assert
 (>= l_0_7_3 0.0))
(assert
 (>= l_0_7_4 0.0))
(assert
 (>= l_0_7_5 0.0))
(assert
 (>= l_0_7_6 0.0))
(assert
 (>= l_0_7_7 0.0))
(assert
 (>= l_0_7_8 0.0))
(assert
 (>= l_0_7_9 0.0))
(assert
 (>= l_0_7_10 0.0))
(assert
 (= (+ (+ (- (+ (- l_0_8_1) l_0_8_2) l_0_8_5) l_0_8_6) 1.0) 0.0))
(assert
 (= (- (- (- l_0_8_1 l_0_8_2) l_0_8_8) 1.0) 0.0))
(assert
 (= (- (+ (* (- (/ 1.0 2.0)) l_0_8_3) (* (/ 1.0 2.0) l_0_8_4)) l_0_8_5) 0.0))
(assert
 (= (- (- l_0_8_3 l_0_8_4) l_0_8_8) 0.0))
(assert
 (= (+ (- l_0_8_5 l_0_8_6) l_0_8_8) 0.0))
(assert
 (= (- l_0_8_7) 0.0))
(assert
 (= l_0_8_7 0.0))
(assert
 (= (- l_0_8_9) 0.0))
(assert
 (>= l_0_8_1 0.0))
(assert
 (>= l_0_8_2 0.0))
(assert
 (>= l_0_8_3 0.0))
(assert
 (>= l_0_8_4 0.0))
(assert
 (>= l_0_8_5 0.0))
(assert
 (>= l_0_8_6 0.0))
(assert
 (>= l_0_8_7 0.0))
(assert
 (>= l_0_8_8 0.0))
(assert
 (>= l_0_8_9 0.0))
(assert
 (= (+ (- (- l_0_9_1 l_0_9_2) l_0_9_8) 1.0) 0.0))
(assert
 (= (- (+ (- (+ (- l_0_9_1) l_0_9_2) l_0_9_5) l_0_9_6) 1.0) 0.0))
(assert
 (= (- (+ (* (- (/ 1.0 2.0)) l_0_9_3) (* (/ 1.0 2.0) l_0_9_4)) l_0_9_5) 0.0))
(assert
 (= (- (- l_0_9_3 l_0_9_4) l_0_9_8) 0.0))
(assert
 (= (+ (- l_0_9_5 l_0_9_6) l_0_9_8) 0.0))
(assert
 (= (- l_0_9_7) 0.0))
(assert
 (= l_0_9_7 0.0))
(assert
 (= (- (- (- l_0_9_10) l_0_9_11) l_0_9_9) 0.0))
(assert
 (>= l_0_9_1 0.0))
(assert
 (>= l_0_9_2 0.0))
(assert
 (>= l_0_9_3 0.0))
(assert
 (>= l_0_9_4 0.0))
(assert
 (>= l_0_9_5 0.0))
(assert
 (>= l_0_9_6 0.0))
(assert
 (>= l_0_9_7 0.0))
(assert
 (>= l_0_9_8 0.0))
(assert
 (>= l_0_9_9 0.0))
(assert
 (>= l_0_9_10 0.0))
(assert
 (>= l_0_9_11 0.0))
(assert
 (let ((?x699 (+ (- (+ (* (- (/ 1.0 2.0)) l_0_10_3) (* (/ 1.0 2.0) l_0_10_4)) l_0_10_5) (/ 1.0 4.0))))
 (= ?x699 0.0)))
(assert
 (= (- (- (- l_0_10_3 l_0_10_4) l_0_10_8) (/ 1.0 2.0)) 0.0))
(assert
 (= (+ (- (+ (- l_0_10_1) l_0_10_2) l_0_10_5) l_0_10_6) 0.0))
(assert
 (= (- (- l_0_10_1 l_0_10_2) l_0_10_8) 0.0))
(assert
 (= (+ (- l_0_10_5 l_0_10_6) l_0_10_8) 0.0))
(assert
 (= (- l_0_10_7) 0.0))
(assert
 (= l_0_10_7 0.0))
(assert
 (let ((?x723 (- (- (- (- (- l_0_10_10) l_0_10_11) l_0_10_12) l_0_10_13) l_0_10_9)))
 (= ?x723 0.0)))
(assert
 (>= l_0_10_1 0.0))
(assert
 (>= l_0_10_2 0.0))
(assert
 (>= l_0_10_3 0.0))
(assert
 (>= l_0_10_4 0.0))
(assert
 (>= l_0_10_5 0.0))
(assert
 (>= l_0_10_6 0.0))
(assert
 (>= l_0_10_7 0.0))
(assert
 (>= l_0_10_8 0.0))
(assert
 (>= l_0_10_9 0.0))
(assert
 (>= l_0_10_10 0.0))
(assert
 (>= l_0_10_11 0.0))
(assert
 (>= l_0_10_12 0.0))
(assert
 (>= l_0_10_13 0.0))
(assert
 (= (+ (- (- l_0_11_3 l_0_11_4) l_0_11_8) (/ 1.0 2.0)) 0.0))
(assert
 (let ((?x746 (- (- (+ (* (- (/ 1.0 2.0)) l_0_11_3) (* (/ 1.0 2.0) l_0_11_4)) l_0_11_5) (/ 1.0 4.0))))
 (= ?x746 0.0)))
(assert
 (= (+ (- (+ (- l_0_11_1) l_0_11_2) l_0_11_5) l_0_11_6) 0.0))
(assert
 (= (- (- l_0_11_1 l_0_11_2) l_0_11_8) 0.0))
(assert
 (= (+ (- l_0_11_5 l_0_11_6) l_0_11_8) 0.0))
(assert
 (= (- l_0_11_7) 0.0))
(assert
 (= l_0_11_7 0.0))
(assert
 (let ((?x766 (- (- (- (- (- l_0_11_10) l_0_11_11) l_0_11_12) l_0_11_13) l_0_11_14)))
 (= (- (- ?x766 l_0_11_15) l_0_11_9) 0.0)))
(assert
 (>= l_0_11_1 0.0))
(assert
 (>= l_0_11_2 0.0))
(assert
 (>= l_0_11_3 0.0))
(assert
 (>= l_0_11_4 0.0))
(assert
 (>= l_0_11_5 0.0))
(assert
 (>= l_0_11_6 0.0))
(assert
 (>= l_0_11_7 0.0))
(assert
 (>= l_0_11_8 0.0))
(assert
 (>= l_0_11_9 0.0))
(assert
 (>= l_0_11_10 0.0))
(assert
 (>= l_0_11_11 0.0))
(assert
 (>= l_0_11_12 0.0))
(assert
 (>= l_0_11_13 0.0))
(assert
 (>= l_0_11_14 0.0))
(assert
 (>= l_0_11_15 0.0))
(assert
 (= (+ (+ (- (+ (- l_0_12_1) l_0_12_2) l_0_12_5) l_0_12_6) 1.0) 0.0))
(assert
 (= (- (+ (- l_0_12_5 l_0_12_6) l_0_12_8) 1.0) 0.0))
(assert
 (let ((?x799 (+ (- (+ (* (- (/ 1.0 2.0)) l_0_12_3) (* (/ 1.0 2.0) l_0_12_4)) l_0_12_5) (/ 1.0 2.0))))
 (= ?x799 0.0)))
(assert
 (= (- (- l_0_12_1 l_0_12_2) l_0_12_8) 0.0))
(assert
 (= (- (- l_0_12_3 l_0_12_4) l_0_12_8) 0.0))
(assert
 (= (- l_0_12_7) 0.0))
(assert
 (= l_0_12_7 0.0))
(assert
 (let ((?x814 (- (- (- (- (- l_0_12_10) l_0_12_11) l_0_12_12) l_0_12_13) l_0_12_14)))
 (= (- (- (- (- ?x814 l_0_12_15) l_0_12_16) l_0_12_17) l_0_12_9) 0.0)))
(assert
 (>= l_0_12_1 0.0))
(assert
 (>= l_0_12_2 0.0))
(assert
 (>= l_0_12_3 0.0))
(assert
 (>= l_0_12_4 0.0))
(assert
 (>= l_0_12_5 0.0))
(assert
 (>= l_0_12_6 0.0))
(assert
 (>= l_0_12_7 0.0))
(assert
 (>= l_0_12_8 0.0))
(assert
 (>= l_0_12_9 0.0))
(assert
 (>= l_0_12_10 0.0))
(assert
 (>= l_0_12_11 0.0))
(assert
 (>= l_0_12_12 0.0))
(assert
 (>= l_0_12_13 0.0))
(assert
 (>= l_0_12_14 0.0))
(assert
 (>= l_0_12_15 0.0))
(assert
 (>= l_0_12_16 0.0))
(assert
 (>= l_0_12_17 0.0))
(assert
 (= (+ (+ (- l_0_13_5 l_0_13_6) l_0_13_8) 1.0) 0.0))
(assert
 (= (- (+ (- (+ (- l_0_13_1) l_0_13_2) l_0_13_5) l_0_13_6) 1.0) 0.0))
(assert
 (= (- (- l_0_13_1 l_0_13_2) l_0_13_8) 0.0))
(assert
 (= (- (+ (* (- (/ 1.0 2.0)) l_0_13_3) (* (/ 1.0 2.0) l_0_13_4)) l_0_13_5) 0.0))
(assert
 (= (- (- l_0_13_3 l_0_13_4) l_0_13_8) 0.0))
(assert
 (= (- l_0_13_7) 0.0))
(assert
 (= l_0_13_7 0.0))
(assert
 (let ((?x865 (- (- (- (- (- l_0_13_10) l_0_13_11) l_0_13_12) l_0_13_13) l_0_13_14)))
 (let ((?x870 (- (- (- (- (- ?x865 l_0_13_15) l_0_13_16) l_0_13_17) l_0_13_18) l_0_13_19)))
 (= (- ?x870 l_0_13_9) 0.0))))
(assert
 (>= l_0_13_1 0.0))
(assert
 (>= l_0_13_2 0.0))
(assert
 (>= l_0_13_3 0.0))
(assert
 (>= l_0_13_4 0.0))
(assert
 (>= l_0_13_5 0.0))
(assert
 (>= l_0_13_6 0.0))
(assert
 (>= l_0_13_7 0.0))
(assert
 (>= l_0_13_8 0.0))
(assert
 (>= l_0_13_9 0.0))
(assert
 (>= l_0_13_10 0.0))
(assert
 (>= l_0_13_11 0.0))
(assert
 (>= l_0_13_12 0.0))
(assert
 (>= l_0_13_13 0.0))
(assert
 (>= l_0_13_14 0.0))
(assert
 (>= l_0_13_15 0.0))
(assert
 (>= l_0_13_16 0.0))
(assert
 (>= l_0_13_17 0.0))
(assert
 (>= l_0_13_18 0.0))
(assert
 (>= l_0_13_19 0.0))
(assert
 (= (+ (+ (- (+ (- l_0_14_1) l_0_14_2) l_0_14_5) l_0_14_6) 1.0) 0.0))
(assert
 (let ((?x902 (+ (- (+ (* (- (/ 1.0 2.0)) l_0_14_3) (* (/ 1.0 2.0) l_0_14_4)) l_0_14_5) (/ 1.0 2.0))))
 (= ?x902 0.0)))
(assert
 (= (- (+ (- l_0_14_1 l_0_14_2) l_0_14_8) 1.0) 0.0))
(assert
 (= (- (+ (- l_0_14_3 l_0_14_4) l_0_14_8) 1.0) 0.0))
(assert
 (= (- (- l_0_14_5 l_0_14_6) l_0_14_8) 0.0))
(assert
 (= (- l_0_14_7) 0.0))
(assert
 (= l_0_14_7 0.0))
(assert
 (= (- l_0_14_9) 0.0))
(assert
 (>= l_0_14_1 0.0))
(assert
 (>= l_0_14_2 0.0))
(assert
 (>= l_0_14_3 0.0))
(assert
 (>= l_0_14_4 0.0))
(assert
 (>= l_0_14_5 0.0))
(assert
 (>= l_0_14_6 0.0))
(assert
 (>= l_0_14_7 0.0))
(assert
 (>= l_0_14_8 0.0))
(assert
 (>= l_0_14_9 0.0))
(assert
 (= (+ (+ (- l_0_15_1 l_0_15_2) l_0_15_8) 1.0) 0.0))
(assert
 (= (+ (+ (- l_0_15_3 l_0_15_4) l_0_15_8) 1.0) 0.0))
(assert
 (= (- (+ (- (+ (- l_0_15_1) l_0_15_2) l_0_15_5) l_0_15_6) 1.0) 0.0))
(assert
 (let ((?x947 (- (- (+ (* (- (/ 1.0 2.0)) l_0_15_3) (* (/ 1.0 2.0) l_0_15_4)) l_0_15_5) (/ 1.0 2.0))))
 (= ?x947 0.0)))
(assert
 (= (- (- l_0_15_5 l_0_15_6) l_0_15_8) 0.0))
(assert
 (= (- l_0_15_7) 0.0))
(assert
 (= l_0_15_7 0.0))
(assert
 (= (- (- (- l_0_15_10) l_0_15_11) l_0_15_9) 0.0))
(assert
 (>= l_0_15_1 0.0))
(assert
 (>= l_0_15_2 0.0))
(assert
 (>= l_0_15_3 0.0))
(assert
 (>= l_0_15_4 0.0))
(assert
 (>= l_0_15_5 0.0))
(assert
 (>= l_0_15_6 0.0))
(assert
 (>= l_0_15_7 0.0))
(assert
 (>= l_0_15_8 0.0))
(assert
 (>= l_0_15_9 0.0))
(assert
 (>= l_0_15_10 0.0))
(assert
 (>= l_0_15_11 0.0))
(assert
 (let ((?x974 (+ (- (+ (* (- (/ 1.0 2.0)) l_0_16_3) (* (/ 1.0 2.0) l_0_16_4)) l_0_16_5) (/ 1.0 4.0))))
 (= ?x974 0.0)))
(assert
 (= (- (+ (- l_0_16_3 l_0_16_4) l_0_16_8) (/ 1.0 2.0)) 0.0))
(assert
 (= (+ (- (+ (- l_0_16_1) l_0_16_2) l_0_16_5) l_0_16_6) 0.0))
(assert
 (= (+ (- l_0_16_1 l_0_16_2) l_0_16_8) 0.0))
(assert
 (= (- (- l_0_16_5 l_0_16_6) l_0_16_8) 0.0))
(assert
 (= (- l_0_16_7) 0.0))
(assert
 (= l_0_16_7 0.0))
(assert
 (let ((?x998 (- (- (- (- (- l_0_16_10) l_0_16_11) l_0_16_12) l_0_16_13) l_0_16_9)))
 (= ?x998 0.0)))
(assert
 (>= l_0_16_1 0.0))
(assert
 (>= l_0_16_2 0.0))
(assert
 (>= l_0_16_3 0.0))
(assert
 (>= l_0_16_4 0.0))
(assert
 (>= l_0_16_5 0.0))
(assert
 (>= l_0_16_6 0.0))
(assert
 (>= l_0_16_7 0.0))
(assert
 (>= l_0_16_8 0.0))
(assert
 (>= l_0_16_9 0.0))
(assert
 (>= l_0_16_10 0.0))
(assert
 (>= l_0_16_11 0.0))
(assert
 (>= l_0_16_12 0.0))
(assert
 (>= l_0_16_13 0.0))
(assert
 (= (+ (+ (- l_0_17_3 l_0_17_4) l_0_17_8) (/ 1.0 2.0)) 0.0))
(assert
 (let ((?x1021 (- (- (+ (* (- (/ 1.0 2.0)) l_0_17_3) (* (/ 1.0 2.0) l_0_17_4)) l_0_17_5) (/ 1.0 4.0))))
 (= ?x1021 0.0)))
(assert
 (= (+ (- (+ (- l_0_17_1) l_0_17_2) l_0_17_5) l_0_17_6) 0.0))
(assert
 (= (+ (- l_0_17_1 l_0_17_2) l_0_17_8) 0.0))
(assert
 (= (- (- l_0_17_5 l_0_17_6) l_0_17_8) 0.0))
(assert
 (= (- l_0_17_7) 0.0))
(assert
 (= l_0_17_7 0.0))
(assert
 (let ((?x1041 (- (- (- (- (- l_0_17_10) l_0_17_11) l_0_17_12) l_0_17_13) l_0_17_14)))
 (= (- (- ?x1041 l_0_17_15) l_0_17_9) 0.0)))
(assert
 (>= l_0_17_1 0.0))
(assert
 (>= l_0_17_2 0.0))
(assert
 (>= l_0_17_3 0.0))
(assert
 (>= l_0_17_4 0.0))
(assert
 (>= l_0_17_5 0.0))
(assert
 (>= l_0_17_6 0.0))
(assert
 (>= l_0_17_7 0.0))
(assert
 (>= l_0_17_8 0.0))
(assert
 (>= l_0_17_9 0.0))
(assert
 (>= l_0_17_10 0.0))
(assert
 (>= l_0_17_11 0.0))
(assert
 (>= l_0_17_12 0.0))
(assert
 (>= l_0_17_13 0.0))
(assert
 (>= l_0_17_14 0.0))
(assert
 (>= l_0_17_15 0.0))
(assert
 (= (+ (+ (- (+ (- l_0_18_1) l_0_18_2) l_0_18_5) l_0_18_6) 1.0) 0.0))
(assert
 (let ((?x1070 (+ (- (+ (* (- (/ 1.0 2.0)) l_0_18_3) (* (/ 1.0 2.0) l_0_18_4)) l_0_18_5) 1.0)))
 (= ?x1070 0.0)))
(assert
 (= (- (- (- l_0_18_5 l_0_18_6) l_0_18_8) 1.0) 0.0))
(assert
 (= (+ (- l_0_18_1 l_0_18_2) l_0_18_8) 0.0))
(assert
 (= (+ (- l_0_18_3 l_0_18_4) l_0_18_8) 0.0))
(assert
 (= (- l_0_18_7) 0.0))
(assert
 (= l_0_18_7 0.0))
(assert
 (let ((?x1089 (- (- (- (- (- l_0_18_10) l_0_18_11) l_0_18_12) l_0_18_13) l_0_18_14)))
 (= (- (- (- (- ?x1089 l_0_18_15) l_0_18_16) l_0_18_17) l_0_18_9) 0.0)))
(assert
 (>= l_0_18_1 0.0))
(assert
 (>= l_0_18_2 0.0))
(assert
 (>= l_0_18_3 0.0))
(assert
 (>= l_0_18_4 0.0))
(assert
 (>= l_0_18_5 0.0))
(assert
 (>= l_0_18_6 0.0))
(assert
 (>= l_0_18_7 0.0))
(assert
 (>= l_0_18_8 0.0))
(assert
 (>= l_0_18_9 0.0))
(assert
 (>= l_0_18_10 0.0))
(assert
 (>= l_0_18_11 0.0))
(assert
 (>= l_0_18_12 0.0))
(assert
 (>= l_0_18_13 0.0))
(assert
 (>= l_0_18_14 0.0))
(assert
 (>= l_0_18_15 0.0))
(assert
 (>= l_0_18_16 0.0))
(assert
 (>= l_0_18_17 0.0))
(assert
 (= (+ (- (- l_0_19_5 l_0_19_6) l_0_19_8) 1.0) 0.0))
(assert
 (= (- (+ (- (+ (- l_0_19_1) l_0_19_2) l_0_19_5) l_0_19_6) 1.0) 0.0))
(assert
 (let ((?x1126 (- (- (+ (* (- (/ 1.0 2.0)) l_0_19_3) (* (/ 1.0 2.0) l_0_19_4)) l_0_19_5) (/ 1.0 2.0))))
 (= ?x1126 0.0)))
(assert
 (= (+ (- l_0_19_1 l_0_19_2) l_0_19_8) 0.0))
(assert
 (= (+ (- l_0_19_3 l_0_19_4) l_0_19_8) 0.0))
(assert
 (= (- l_0_19_7) 0.0))
(assert
 (= l_0_19_7 0.0))
(assert
 (let ((?x1141 (- (- (- (- (- l_0_19_10) l_0_19_11) l_0_19_12) l_0_19_13) l_0_19_14)))
 (let ((?x1146 (- (- (- (- (- ?x1141 l_0_19_15) l_0_19_16) l_0_19_17) l_0_19_18) l_0_19_19)))
 (= (- ?x1146 l_0_19_9) 0.0))))
(assert
 (>= l_0_19_1 0.0))
(assert
 (>= l_0_19_2 0.0))
(assert
 (>= l_0_19_3 0.0))
(assert
 (>= l_0_19_4 0.0))
(assert
 (>= l_0_19_5 0.0))
(assert
 (>= l_0_19_6 0.0))
(assert
 (>= l_0_19_7 0.0))
(assert
 (>= l_0_19_8 0.0))
(assert
 (>= l_0_19_9 0.0))
(assert
 (>= l_0_19_10 0.0))
(assert
 (>= l_0_19_11 0.0))
(assert
 (>= l_0_19_12 0.0))
(assert
 (>= l_0_19_13 0.0))
(assert
 (>= l_0_19_14 0.0))
(assert
 (>= l_0_19_15 0.0))
(assert
 (>= l_0_19_16 0.0))
(assert
 (>= l_0_19_17 0.0))
(assert
 (>= l_0_19_18 0.0))
(assert
 (>= l_0_19_19 0.0))
(check-sat)
(get-model)